c Output_time 26.03.2020 18:15:39_+0100 1585242939265799572
c ** Program information **
c program_name                          "QBRG_debug"
c version                               "0.3.20"
c date                                  "25.3.2020"
c gid_id                                "673970833836058123f633335630c185360d632e"
c author                                "Oliver Kullmann"
c url                                   "https://github.com/OKullmann/oklibrary/blob/master/Satisfiability/Transformers/Generators/Random/QBRG.cpp"
c ** Machine information **
c machine_name                          "chyna-Lenovo-G50-70"
c bogomips                              3791.08
c ** Compilation information **
c compiler_version                      "g++ 7.5.0"
c compilation_date                      "Mar_26_2020 11:16:30"
c compilation_options                   "--std=c++17 -pedantic -fmax-errors=5 -Wall -Wextra -g -D_GLIBCXX_DEBUG"
c NDEBUG                                0
c OPTIMIZE                              0
c ** Parameters **
c command-line                          "./QBRG_debug" "a40 e40 a40 40" "700*1,1|2-2,1|3-3,1|4-4,1" "" "1,t" ""
c output                                "QuBlRaGe_160_700_1585242939100822058.qdimacs"
c options                               "filtered,renamed"
c num_quantifier_blocks                 4
c  quantifier_blocks                    1:a1-40 2:e41-80 3:a81-120 4:e121-160
c num_clause-blocks                     1
c  clause-blocks                        700 * {1-40,1,1/2} | {41-80,1,1/2} | {81-120,1,1/2} | {121-160,1,1/2}
c num_e-seeds                           37+2=39
c  e-seeds                              1 0 1 0 5 160 2 40 0 40 1 40 0 40 1 700 4 1 1 1 1 2 2 2 1 1 2 3 3 1 1 2 4 4 1 1 2 1 1585242939100820986
p cnf 160 700
a 1 2 3 4 5 6 7 8 9 10 11 12 13 14 15 16 17 18 19 20 21 22 23 24 25 26 27 28 29 30 31 32 33 34 35 36 37 38 39 40 0
e 41 42 43 44 45 46 47 48 49 50 51 52 53 54 55 56 57 58 59 60 61 62 63 64 65 66 67 68 69 70 71 72 73 74 75 76 77 78 79 80 0
a 81 82 83 84 85 86 87 88 89 90 91 92 93 94 95 96 97 98 99 100 101 102 103 104 105 106 107 108 109 110 111 112 113 114 115 116 117 118 119 120 0
e 121 122 123 124 125 126 127 128 129 130 131 132 133 134 135 136 137 138 139 140 141 142 143 144 145 146 147 148 149 150 151 152 153 154 155 156 157 158 159 160 0
-36 65 82 -121 0
18 51 88 -121 0
23 -73 97 -121 0
4 41 98 -121 0
5 63 99 -121 0
-13 -78 -100 -121 0
-40 48 102 -121 0
-17 43 -119 -121 0
31 -42 86 121 0
-31 64 -87 121 0
-28 56 -88 121 0
-5 66 -91 121 0
-23 -56 94 121 0
26 -43 -97 121 0
37 -55 -98 121 0
35 68 -101 121 0
33 -49 -108 121 0
10 75 90 -122 0
-27 -57 92 -122 0
2 -60 -96 -122 0
-13 67 -101 -122 0
-15 -55 -102 -122 0
-5 50 -103 -122 0
13 56 -106 -122 0
12 75 108 -122 0
6 80 -109 -122 0
16 -55 -111 -122 0
25 80 112 -122 0
10 73 -118 -122 0
-27 -43 84 122 0
-30 -57 90 122 0
-21 67 -97 122 0
16 46 106 122 0
-32 76 110 122 0
-39 47 -117 122 0
20 -78 81 -123 0
4 -49 -87 -123 0
-38 -61 91 -123 0
-29 69 101 -123 0
37 -53 107 -123 0
-9 -78 110 -123 0
12 -42 -117 -123 0
9 47 119 -123 0
31 -69 -81 123 0
32 67 -84 123 0
-32 -66 86 123 0
-32 -68 89 123 0
39 42 -92 123 0
12 50 -97 123 0
-15 -57 100 123 0
-33 53 105 123 0
-31 -58 111 123 0
-8 61 -115 123 0
-35 -58 -116 123 0
-3 79 -81 -124 0
-19 72 82 -124 0
-40 -65 89 -124 0
10 67 95 -124 0
36 79 -105 -124 0
-31 -61 -108 -124 0
5 64 110 -124 0
31 43 -111 -124 0
34 61 -87 124 0
2 -63 93 124 0
-40 44 -95 124 0
-38 57 -100 124 0
-27 64 100 124 0
-9 -52 107 124 0
-38 78 109 124 0
-8 -61 -111 124 0
30 -76 -114 124 0
-20 -46 -120 124 0
-24 50 -86 -125 0
4 -75 86 -125 0
11 69 87 -125 0
-16 50 89 -125 0
18 -41 -97 -125 0
20 -72 103 -125 0
6 -76 -104 -125 0
-1 -45 -105 -125 0
-6 43 114 -125 0
32 -77 115 -125 0
-5 -50 -86 125 0
-10 59 86 125 0
-5 74 -89 125 0
-13 -52 -91 125 0
-9 -74 95 125 0
33 43 101 125 0
17 55 107 125 0
-31 -46 -108 125 0
-8 73 114 125 0
-34 68 -88 -126 0
-33 41 -89 -126 0
26 -68 -89 -126 0
34 66 94 -126 0
-1 -68 -95 -126 0
19 57 -101 -126 0
-20 69 103 -126 0
40 41 -107 -126 0
31 -69 -116 -126 0
30 56 -83 126 0
13 -52 85 126 0
-12 78 -92 126 0
-36 -68 93 126 0
-1 -65 -96 126 0
4 -70 106 126 0
-14 66 107 126 0
13 -46 113 126 0
3 51 113 126 0
-27 73 116 126 0
37 -73 -117 126 0
-19 -74 -118 126 0
28 68 118 126 0
-8 71 82 -127 0
-5 68 -87 -127 0
-8 67 92 -127 0
5 80 -93 -127 0
38 73 97 -127 0
38 -50 98 -127 0
-5 61 -102 -127 0
-15 48 104 -127 0
-6 53 -105 -127 0
38 54 106 -127 0
22 75 -115 -127 0
-34 51 117 -127 0
17 -51 -81 127 0
34 -79 -83 127 0
-16 -61 -90 127 0
35 51 99 127 0
-1 -80 100 127 0
-18 -66 -103 127 0
-33 -49 -109 127 0
33 -42 92 -128 0
13 47 -96 -128 0
-30 45 99 -128 0
4 -43 103 -128 0
15 44 -104 -128 0
-8 -63 105 -128 0
37 44 114 -128 0
-15 -67 117 -128 0
38 69 -120 -128 0
-18 -45 120 -128 0
35 -79 -81 128 0
39 47 -82 128 0
-4 64 85 128 0
11 -50 87 128 0
30 70 91 128 0
-21 -44 -98 128 0
-27 -64 -98 128 0
-15 -52 -104 128 0
-34 79 111 128 0
-11 72 -116 128 0
31 66 -87 -129 0
39 60 -92 -129 0
4 -53 -96 -129 0
-19 -55 -100 -129 0
10 -61 100 -129 0
-39 48 102 -129 0
-29 63 107 -129 0
-35 -63 114 -129 0
-8 62 116 -129 0
19 49 -118 -129 0
16 -71 120 -129 0
19 47 86 129 0
-3 -46 91 129 0
36 51 -92 129 0
22 -78 92 129 0
19 -67 94 129 0
-21 61 97 129 0
8 59 107 129 0
34 60 111 129 0
39 50 -114 129 0
-6 41 -116 129 0
20 -53 -118 129 0
3 54 -84 -130 0
-28 77 -89 -130 0
17 51 90 -130 0
-12 -59 90 -130 0
34 -51 -98 -130 0
-15 53 -98 -130 0
39 70 -98 -130 0
-37 -74 -100 -130 0
8 52 110 -130 0
12 -79 116 -130 0
1 43 -81 130 0
12 -56 -86 130 0
6 66 -89 130 0
29 -75 92 130 0
5 -52 95 130 0
18 57 95 130 0
15 48 -97 130 0
28 52 102 130 0
34 76 107 130 0
14 43 111 130 0
-22 65 84 -131 0
-32 80 -85 -131 0
-30 60 -90 -131 0
7 73 91 -131 0
24 -54 -94 -131 0
34 -68 -95 -131 0
34 -45 -103 -131 0
-20 66 -109 -131 0
-21 -65 111 -131 0
-23 -53 -120 -131 0
34 -78 82 131 0
23 -67 84 131 0
1 45 -87 131 0
15 78 94 131 0
26 66 -99 131 0
-28 -59 -102 131 0
-19 55 107 131 0
12 66 109 131 0
22 68 -110 131 0
-21 69 -120 131 0
-14 -71 -83 -132 0
-5 -74 85 -132 0
-34 -50 -88 -132 0
-28 69 90 -132 0
32 42 -93 -132 0
9 -80 -103 -132 0
-7 41 112 -132 0
36 -51 -113 -132 0
28 -70 -120 -132 0
-36 77 90 132 0
32 49 92 132 0
-16 -77 -93 132 0
-25 67 -97 132 0
-7 -62 100 132 0
-34 54 -102 132 0
2 78 -112 132 0
-26 -57 116 132 0
-1 -50 -81 -133 0
15 48 -84 -133 0
15 54 -87 -133 0
7 -45 89 -133 0
-4 -45 -92 -133 0
13 58 92 -133 0
-40 -74 92 -133 0
22 75 -93 -133 0
16 72 -103 -133 0
1 -78 -106 -133 0
21 79 -110 -133 0
-4 59 -112 -133 0
5 52 -115 -133 0
-7 45 -100 133 0
29 42 -101 133 0
33 -65 -107 133 0
-2 53 113 133 0
25 -68 -114 133 0
-6 57 -116 133 0
1 67 -99 -134 0
22 46 103 -134 0
27 -42 108 -134 0
34 53 113 -134 0
29 41 -116 -134 0
32 -78 -119 -134 0
-24 -79 -83 134 0
40 -77 85 134 0
-18 -41 87 134 0
11 71 87 134 0
-2 -78 -89 134 0
-9 66 -93 134 0
9 -74 93 134 0
-24 60 -97 134 0
-37 -80 101 134 0
5 -46 -102 134 0
32 72 110 134 0
-19 50 119 134 0
28 45 120 134 0
17 66 -88 -135 0
-35 -52 89 -135 0
-9 -75 -98 -135 0
7 -73 -99 -135 0
22 52 -104 -135 0
-19 50 104 -135 0
26 -51 -115 -135 0
16 -47 -118 -135 0
35 -49 81 135 0
11 74 -110 135 0
-8 -79 -111 135 0
17 57 -112 135 0
28 53 112 135 0
-16 -76 116 135 0
-24 75 -117 135 0
9 68 -119 135 0
-11 65 -83 -136 0
1 49 89 -136 0
28 -64 -90 -136 0
-11 49 91 -136 0
-2 -53 -93 -136 0
-4 51 99 -136 0
-13 63 99 -136 0
-10 59 -100 -136 0
-29 67 -103 -136 0
29 53 -106 -136 0
4 -74 107 -136 0
27 80 85 136 0
-32 75 87 136 0
-7 41 104 136 0
3 -68 -106 136 0
20 -59 -109 136 0
-30 -75 110 136 0
20 44 -81 -137 0
-30 -44 95 -137 0
19 73 -98 -137 0
-30 -53 102 -137 0
-2 75 104 -137 0
-2 59 -110 -137 0
9 -48 -112 -137 0
10 71 -113 -137 0
-25 44 -117 -137 0
10 -70 119 -137 0
-6 -67 120 -137 0
-39 -61 85 137 0
7 80 -98 137 0
-31 75 -104 137 0
-21 -52 -105 137 0
24 -61 109 137 0
-31 55 110 137 0
-20 -72 110 137 0
-38 -72 110 137 0
6 -54 92 -138 0
9 -69 -96 -138 0
27 63 96 -138 0
-1 -58 -98 -138 0
31 69 103 -138 0
-13 -42 112 -138 0
-39 49 -82 138 0
38 -69 84 138 0
8 41 -86 138 0
-34 62 -88 138 0
17 -42 -96 138 0
-33 -61 -101 138 0
32 72 113 138 0
12 67 -114 138 0
-39 76 -117 138 0
-1 52 -83 -139 0
-14 80 87 -139 0
-36 -57 89 -139 0
40 -42 -95 -139 0
10 51 108 -139 0
26 43 114 -139 0
-8 61 -83 139 0
-1 50 83 139 0
-25 75 87 139 0
24 -73 -89 139 0
36 -73 92 139 0
-39 75 92 139 0
30 65 93 139 0
9 -46 96 139 0
21 68 98 139 0
-11 -65 -113 139 0
33 48 -119 139 0
-21 -59 -119 139 0
1 58 119 139 0
-2 -75 84 -140 0
-12 -45 101 -140 0
15 -55 -110 -140 0
36 66 -115 -140 0
-10 77 120 -140 0
-4 -57 81 140 0
-28 -43 85 140 0
-6 58 -95 140 0
-14 46 -99 140 0
18 75 -111 140 0
19 -77 -114 140 0
21 -45 117 140 0
22 -51 -85 -141 0
33 70 88 -141 0
9 -45 -90 -141 0
7 72 -98 -141 0
-9 48 101 -141 0
-22 -42 -102 -141 0
3 66 -103 -141 0
2 72 113 -141 0
28 49 -90 141 0
-23 49 95 141 0
-19 -47 -96 141 0
5 -71 97 141 0
7 -41 103 141 0
6 46 104 141 0
37 -67 105 141 0
-16 -63 119 141 0
-20 -78 105 -142 0
22 80 -112 -142 0
10 46 116 -142 0
37 71 -81 142 0
-27 -47 85 142 0
-32 -45 95 142 0
-28 -46 -96 142 0
37 -72 106 142 0
29 46 113 142 0
20 -53 -114 142 0
-34 56 114 142 0
-26 74 114 142 0
-23 47 -119 142 0
11 -70 84 -143 0
13 60 87 -143 0
10 73 87 -143 0
14 -59 91 -143 0
-4 53 -95 -143 0
-14 58 98 -143 0
20 -76 -100 -143 0
-4 67 101 -143 0
8 -80 101 -143 0
-18 -70 -108 -143 0
-22 -51 112 -143 0
12 56 -117 -143 0
31 -76 118 -143 0
-9 74 -95 143 0
18 -56 95 143 0
-26 62 -97 143 0
33 51 103 143 0
8 -54 104 143 0
-1 56 104 143 0
6 48 -111 143 0
40 61 -113 143 0
-25 50 -118 143 0
-18 56 119 143 0
26 -54 120 143 0
6 -80 89 -144 0
18 -46 -94 -144 0
-37 51 95 -144 0
7 -56 95 -144 0
5 -75 -99 -144 0
8 56 99 -144 0
37 -48 -100 -144 0
16 -62 102 -144 0
27 -43 -107 -144 0
4 -78 -109 -144 0
-9 51 109 -144 0
-3 47 -115 -144 0
31 -59 -116 -144 0
7 -44 -117 -144 0
-21 64 -89 144 0
5 43 99 144 0
-16 53 99 144 0
-12 69 -111 144 0
8 65 117 144 0
-19 66 -85 -145 0
-2 -57 -88 -145 0
2 75 -102 -145 0
38 -47 102 -145 0
39 79 103 -145 0
-19 -74 -104 -145 0
-35 -52 104 -145 0
-7 67 104 -145 0
18 -75 -110 -145 0
27 49 -111 -145 0
-12 -66 -119 -145 0
19 -75 82 145 0
4 45 -85 145 0
-3 55 -89 145 0
-22 79 -101 145 0
35 69 103 145 0
38 43 -110 145 0
29 71 -110 145 0
-8 55 -111 145 0
26 -44 -117 145 0
-14 -77 -120 145 0
-28 -47 120 145 0
-35 76 86 -146 0
-5 75 -87 -146 0
32 76 -91 -146 0
-13 67 -93 -146 0
-3 -55 93 -146 0
-34 66 -96 -146 0
1 75 -99 -146 0
-8 -80 100 -146 0
-6 55 -107 -146 0
23 -61 -109 -146 0
-1 -52 110 -146 0
-27 50 -117 -146 0
12 66 119 -146 0
-20 -72 90 146 0
27 -60 -99 146 0
-3 46 99 146 0
28 -54 -113 146 0
-9 57 119 146 0
-25 -54 -86 -147 0
20 65 -88 -147 0
-34 76 90 -147 0
-2 78 -95 -147 0
38 -54 -97 -147 0
-5 -79 98 -147 0
17 69 -103 -147 0
-1 -50 90 147 0
34 -41 -95 147 0
31 -62 98 147 0
-11 -70 -103 147 0
15 -49 -108 147 0
-9 53 113 147 0
2 -46 -117 147 0
-26 -79 94 -148 0
22 -65 -107 -148 0
5 -41 108 -148 0
28 -46 117 -148 0
-37 -62 -87 148 0
-28 61 -94 148 0
26 -80 96 148 0
-26 41 97 148 0
34 -65 97 148 0
23 73 99 148 0
5 -53 -102 148 0
37 -49 104 148 0
-17 51 -112 148 0
39 -66 113 148 0
39 -45 -119 148 0
-40 69 -83 -149 0
-32 69 85 -149 0
-36 -51 86 -149 0
-19 -61 87 -149 0
12 49 -90 -149 0
-7 -72 -92 -149 0
-15 66 97 -149 0
1 -68 105 -149 0
-3 -72 106 -149 0
16 75 -107 -149 0
10 73 -83 149 0
36 48 -85 149 0
-28 -74 85 149 0
36 43 87 149 0
-37 -54 88 149 0
-3 75 -91 149 0
5 -69 91 149 0
-2 -78 -106 149 0
1 79 -111 149 0
-16 -57 -112 149 0
-2 -46 -117 149 0
-1 62 117 149 0
-14 61 -91 -150 0
16 -63 -95 -150 0
-29 59 -103 -150 0
-24 -72 -104 -150 0
-16 61 -114 -150 0
17 64 88 150 0
-4 55 93 150 0
-8 -77 95 150 0
21 74 97 150 0
40 -64 -102 150 0
-30 -43 105 150 0
-6 50 109 150 0
-31 45 113 150 0
32 -62 116 150 0
-18 47 -118 150 0
-22 -66 119 150 0
8 -44 94 -151 0
-27 -61 -88 151 0
-10 74 -92 151 0
-2 56 98 151 0
-36 -59 -101 151 0
12 -46 101 151 0
-28 54 -110 151 0
29 50 113 151 0
13 42 116 151 0
-8 -46 -81 -152 0
-11 -67 82 -152 0
-11 -59 93 -152 0
-34 72 99 -152 0
7 78 -102 -152 0
-39 -76 102 -152 0
6 -76 105 -152 0
-29 -68 109 -152 0
21 -74 -86 152 0
-6 56 -90 152 0
32 -43 -84 -153 0
-16 77 -84 -153 0
13 -77 86 -153 0
-13 -64 -90 -153 0
-11 64 94 -153 0
33 -53 106 -153 0
-36 52 -81 153 0
-13 72 84 153 0
12 -61 -96 153 0
-12 -80 -96 153 0
-9 64 -97 153 0
-17 70 97 153 0
-9 69 -100 153 0
37 -51 104 153 0
4 70 106 153 0
17 -52 -115 153 0
31 -54 116 153 0
-1 68 -117 153 0
-3 80 86 -154 0
13 45 117 -154 0
-24 -59 118 -154 0
5 72 -81 154 0
-15 58 94 154 0
7 -63 95 154 0
16 80 -99 154 0
-18 -47 99 154 0
-12 56 101 154 0
-38 -42 -102 154 0
18 64 -109 154 0
-19 -70 -110 154 0
22 72 115 154 0
6 -71 81 -155 0
-23 -73 -83 -155 0
9 78 84 -155 0
-37 -43 -87 -155 0
28 47 -89 -155 0
-8 -48 -91 -155 0
-29 -78 -98 -155 0
-34 62 -103 -155 0
-36 76 -103 -155 0
30 60 106 -155 0
38 -52 -108 -155 0
27 -65 111 -155 0
-21 -46 114 -155 0
18 51 -119 -155 0
-31 77 -91 155 0
-35 64 105 155 0
-12 55 -110 155 0
30 -62 -110 155 0
9 65 110 155 0
-25 53 118 155 0
-36 -57 -119 155 0
-27 -41 -120 155 0
-20 72 -85 -156 0
-2 74 85 -156 0
3 56 -88 -156 0
-20 45 -89 -156 0
-17 -51 98 -156 0
-2 66 -105 -156 0
-33 -80 -106 -156 0
-18 -65 106 -156 0
19 -67 -81 156 0
-9 -80 -82 156 0
-10 47 -86 156 0
-23 43 -98 156 0
9 -41 -103 156 0
-14 57 105 156 0
-13 -58 -119 156 0
-17 -55 87 -157 0
-16 58 -92 -157 0
-31 71 95 -157 0
30 -55 -97 -157 0
17 52 98 -157 0
17 -57 117 -157 0
32 -42 -120 -157 0
-15 54 -90 157 0
33 71 94 157 0
-9 -73 -98 157 0
15 76 108 157 0
-36 -77 110 157 0
26 61 -113 157 0
-21 47 82 -158 0
-11 -74 86 -158 0
27 -47 -88 -158 0
-8 54 90 -158 0
-21 -44 -98 -158 0
-15 -65 98 -158 0
-25 54 -100 -158 0
18 -51 -107 -158 0
34 54 -109 -158 0
-36 59 115 -158 0
5 70 -120 -158 0
33 41 -81 158 0
-34 -55 -84 158 0
19 -45 -91 158 0
12 -74 -97 158 0
5 -56 116 158 0
-29 -62 -117 158 0
36 -69 117 158 0
39 -74 118 158 0
-40 57 87 -159 0
-40 -79 88 -159 0
1 58 -101 -159 0
-33 -69 -115 -159 0
-10 -52 -83 159 0
-10 46 -89 159 0
-19 -75 89 159 0
-38 -72 92 159 0
-26 46 93 159 0
18 -51 -98 159 0
39 65 -111 159 0
17 67 116 159 0
-17 -52 -119 159 0
25 -75 82 -160 0
-38 -62 83 -160 0
-24 58 86 -160 0
31 45 -96 -160 0
24 -79 97 -160 0
-27 50 -107 -160 0
-3 -47 110 -160 0
40 -58 110 -160 0
22 66 -112 -160 0
5 -71 113 -160 0
-29 71 115 -160 0
39 -59 117 -160 0
31 -72 119 -160 0
2 -49 81 160 0
-21 49 81 160 0
-12 -63 -84 160 0
33 -57 -87 160 0
31 69 92 160 0
35 -59 102 160 0
33 -44 -105 160 0
23 -57 105 160 0
19 75 110 160 0
